knapPI_12_20_1000_1
n 20
c 970
z 970
time 0.00
1,582,582,1
2,194,194,0
3,679,679,0
4,485,485,0
5,312,396,0
6,873,873,0
7,468,594,0
8,208,264,0
9,364,462,0
10,260,330,0
11,582,582,0
12,388,388,1
13,291,291,0
14,104,132,0
15,520,660,0
16,416,528,0
17,970,970,0
18,260,330,0
19,582,582,0
20,364,462,0
